
Gurobi 6.5.2 (win64) logging started 07/24/16 17:24:14


Gurobi 6.5.2 (win64) logging started 07/24/16 17:24:14

Optimize a model with 1310 rows, 610 columns and 3651 nonzeros
Coefficient statistics:
  Matrix range    [6e-08, 1e+03]
  Objective range [1e+00, 1e+00]
  Bounds range    [1e+00, 1e+00]
  RHS range       [6e-06, 2e+03]
Presolve removed 1102 rows and 392 columns
Presolve time: 0.00s
Presolved: 208 rows, 218 columns, 945 nonzeros
Variable types: 218 continuous, 0 integer (0 binary)

Root relaxation: objective 1.906658e+01, 232 iterations, 0.02 seconds

    Nodes    |    Current Node    |     Objective Bounds      |     Work
 Expl Unexpl |  Obj  Depth IntInf | Incumbent    BestBd   Gap | It/Node Time

*    0     0               0      19.0665754   19.06658  0.00%     -    0s

Explored 0 nodes (232 simplex iterations) in 0.02 seconds
Thread count was 8 (of 8 available processors)

Optimal solution found (tolerance 1.00e-04)
Best objective 1.906657538184e+01, best bound 1.906657538184e+01, gap 0.0%

Wrote requested result file 'H1\instance3\\Results3EC_Sol2.lp'

